 vasp.5.4.4.18Apr17-6-g9f103f2a35 (build Apr 27 2022 15:47:04) complex

 executed on             LinuxIFC date 2023.05.10  00:23:09

 INCAR:
 POTCAR:    PAW_PBE Si 05Jan2001
 POTCAR:    PAW_PBE O 08Apr2002
 POTCAR:    PAW_PBE Si 05Jan2001
   VRHFIN =Si: s2p2

   TITEL  = PAW_PBE Si 05Jan2001
   POMASS =   28.085; ZVAL   =    4.000    mass and valenz
   ENMAX  =  245.345; ENMIN  =  184.009 eV

 POTCAR:    PAW_PBE O 08Apr2002
   VRHFIN =O: s2p4

   TITEL  = PAW_PBE O 08Apr2002
   POMASS =   16.000; ZVAL   =    6.000    mass and valenz
   ENMAX  =  400.000; ENMIN  =  300.000 eV

 Optimization of the real space projectors (new method)

 maximal supplied QI-value         = 19.84
 optimisation between [QCUT,QGAM] = [ 10.12, 20.44] = [ 28.68,116.96] Ry
 Optimized for a Real-space Cutoff    1.38 Angstroem

   l    n(q)    QCUT    max X(q) W(low)/X(q) W(high)/X(q)  e(spline)
   0      8    10.119   159.560    0.58E-04    0.11E-03    0.54E-07
   0      8    10.119   115.863    0.56E-04    0.11E-03    0.54E-07
   1      8    10.119    88.339    0.22E-03    0.17E-03    0.19E-06
   1      8    10.119    48.592    0.22E-03    0.17E-03    0.18E-06
 Optimization of the real space projectors (new method)

 maximal supplied QI-value         = 24.76
 optimisation between [QCUT,QGAM] = [ 10.15, 20.30] = [ 28.85,115.39] Ry
 Optimized for a Real-space Cutoff    1.51 Angstroem

   l    n(q)    QCUT    max X(q) W(low)/X(q) W(high)/X(q)  e(spline)
   0      9    10.150    20.381    0.17E-03    0.18E-03    0.41E-06
   0      9    10.150    15.268    0.18E-03    0.20E-03    0.43E-06
   1      9    10.150     5.964    0.16E-03    0.20E-03    0.36E-06
   1      9    10.150     5.382    0.13E-03    0.16E-03    0.33E-06
  PAW_PBE Si 05Jan2001                  :
  PAW_PBE O 08Apr2002                   :

 POSCAR: Si20 O40
  positions in direct lattice
 exchange correlation table for  LEXCH =        8
   RHO(1)=    0.500       N(1)  =     2000
   RHO(2)=  100.500       N(2)  =     4000

 VTST: version 3.2, (02/03/18)

 CHAIN: initializing optimizer

 OPT: Using VASP Dynamics algorithm
 CHAIN: Read ICHAIN            0

 POSCAR: Si20 O40
  positions in direct lattice

 ion  position               nearest neighbor table
   1  0.253  0.431  0.111-  45 1.63  48 1.63  37 1.63  33 1.63  17 2.99  11 3.10   2 3.14   4 3.14

   2  0.569  0.253  0.111-  46 1.63  45 1.63  38 1.63  36 1.63  18 2.99  12 3.10   1 3.14   3 3.14

[...]

  21  0.109  0.607  0.318-  17 1.63  13 1.63
  22  0.393  0.109  0.318-  18 1.63  16 1.63
  23  0.891  0.393  0.318-  17 1.63  15 1.63
  24  0.607  0.891  0.318-  18 1.63  14 1.63
  25  0.891  0.607  0.818-  19 1.63   9 1.63
  26  0.607  0.109  0.818-  20 1.63  12 1.63
  27  0.109  0.393  0.818-  19 1.63  11 1.63
  28  0.393  0.891  0.818-  20 1.63  10 1.63
  29  0.891  0.393  0.682-  19 1.63   5 1.63
  30  0.607  0.891  0.682-  20 1.63   8 1.63
  31  0.109  0.607  0.682-  19 1.63   7 1.63
  32  0.393  0.109  0.682-  20 1.63   6 1.63
  33  0.109  0.393  0.182-  17 1.63   1 1.63
  34  0.393  0.891  0.182-  18 1.63   4 1.63
  35  0.891  0.607  0.182-  17 1.63   3 1.63
  36  0.607  0.109  0.182-  18 1.63   2 1.63
  37  0.199  0.416  0.000-   1 1.63  11 1.63
  38  0.584  0.199  0.000-   2 1.63  12 1.63
  39  0.801  0.584  0.000-   3 1.63   9 1.63
  40  0.416  0.801  0.000-   4 1.63  10 1.63
  41  0.801  0.416  0.500-   5 1.63  15 1.63
  42  0.416  0.199  0.500-   6 1.63  16 1.63
  43  0.199  0.584  0.500-   7 1.63  13 1.63
  44  0.584  0.801  0.500-   8 1.63  14 1.63
  45  0.394  0.311  0.132-   1 1.63   2 1.63
  46  0.689  0.394  0.132-   2 1.63   3 1.63
  47  0.606  0.689  0.132-   3 1.63   4 1.63
  48  0.311  0.606  0.132-   4 1.63   1 1.63
  49  0.606  0.311  0.632-   5 1.63   6 1.63
  50  0.311  0.394  0.632-   6 1.63   7 1.63
  51  0.394  0.689  0.632-   7 1.63   8 1.63
  52  0.689  0.606  0.632-   8 1.63   5 1.63
  53  0.606  0.689  0.868-   9 1.63  10 1.63
  54  0.311  0.606  0.868-  10 1.63  11 1.63
  55  0.394  0.311  0.868-  11 1.63  12 1.63
  56  0.689  0.394  0.868-  12 1.63   9 1.63
  57  0.394  0.689  0.368-  13 1.63  14 1.63
  58  0.689  0.606  0.368-  14 1.63  15 1.63
  59  0.606  0.311  0.368-  15 1.63  16 1.63
  60  0.311  0.394  0.368-  16 1.63  13 1.63

  LATTYP: Found a simple tetragonal cell.
 ALAT       =     8.6740000000
 C/A-ratio  =     1.6046806548

  Lattice vectors:

 A1 = (   8.6740000000,   0.0000000000,   0.0000000000)
 A2 = (  -0.0000000000,   8.6740000000,   0.0000000000)
 A3 = (   0.0000000000,   0.0000000000,  13.9190000000)

Analysis of symmetry for initial positions (statically):
 Subroutine PRICEL returns:
 Original cell was already a primitive cell.

 Routine SETGRP: Setting up the symmetry group for a
 simple tetragonal supercell.

 Subroutine GETGRP returns: Found 16 space group operations
 (whereof  8 operations were pure point group operations)
 out of a pool of 16 trial point group operations.

The static configuration has the point symmetry C_4h.
 The point group associated with its full space group is D_4h.

Analysis of symmetry for dynamics (positions and initial velocities):
 Subroutine PRICEL returns:
 Original cell was already a primitive cell.

 Routine SETGRP: Setting up the symmetry group for a
 simple tetragonal supercell.

 Subroutine GETGRP returns: Found 16 space group operations
 (whereof  8 operations were pure point group operations)
 out of a pool of 16 trial point group operations.

The dynamic configuration has the point symmetry C_4h.
 The point group associated with its full space group is D_4h.

 Subroutine INISYM returns: Found 16 space group operations
 (whereof  8 operations are pure point group operations),
 and found     1 'primitive' translations

 KPOINTS: Default gamma

Automatic generation of k-mesh.
Space group operators:
 irot       det(A)        alpha          n_x          n_y          n_z        tau_x        tau_y        tau_z
    1     1.000000     0.000001     1.000000     0.000000     0.000000     0.000000     0.000000     0.000000
    2    -1.000000     0.000001     1.000000     0.000000     0.000000     0.000000     0.000000     0.000000
    3     1.000000    90.000000     0.000000     0.000000    -1.000000     0.000000     0.000000     0.000000
    4    -1.000000    90.000000     0.000000     0.000000    -1.000000     0.000000     0.000000     0.000000
    5     1.000000   179.999999    -0.000000    -0.000000     1.000000     0.000000     0.000000     0.000000
    6    -1.000000   179.999999    -0.000000    -0.000000     1.000000     0.000000     0.000000     0.000000
    7     1.000000    90.000000    -0.000000    -0.000000     1.000000     0.000000     0.000000     0.000000
    8    -1.000000    90.000000    -0.000000    -0.000000     1.000000     0.000000     0.000000     0.000000
    9     1.000000   180.000000     0.000000     1.000000     0.000000     0.000000     0.000000     0.500000
   10    -1.000000   180.000000     0.000000     1.000000     0.000000     0.000000     0.000000     0.500000
   11     1.000000   180.000000    -0.707107    -0.707107     0.000000     0.000000     0.000000     0.500000
   12    -1.000000   180.000000    -0.707107    -0.707107     0.000000     0.000000     0.000000     0.500000
   13     1.000000   180.000000     1.000000     0.000000     0.000000     0.000000     0.000000     0.500000
   14    -1.000000   180.000000     1.000000     0.000000     0.000000     0.000000     0.000000     0.500000
   15     1.000000   180.000000     0.707107    -0.707107     0.000000     0.000000     0.000000     0.500000
   16    -1.000000   180.000000     0.707107    -0.707107     0.000000     0.000000     0.000000     0.500000

 Subroutine IBZKPT returns following result:

 Found      1 irreducible k-points:

 Following reciprocal coordinates:
            Coordinates               Weight
  0.000000  0.000000  0.000000      1.000000

 Following cartesian coordinates:
            Coordinates               Weight
  0.000000  0.000000  0.000000      1.000000

 SYSTEM =  DDEC
 POSCAR =  Si20 O40

 Startparameter for this run:
   NWRITE =      2    write-flag & timer
   PREC   = accura    normal or accurate (medium, high low for compatibility)
   ISTART =      0    job   : 0-new  1-cont  2-samecut
   ICHARG =      2    charge: 1-file 2-atom 10-const
   ISPIN  =      1    spin polarized calculation?
   LNONCOLLINEAR =      F non collinear calculations
   LSORBIT =      F    spin-orbit coupling
   INIWAV =      1    electr: 0-lowe 1-rand  2-diag
   LASPH  =      F    aspherical Exc in radial PAW
   METAGGA=      F    non-selfconsistent MetaGGA calc.

 Electronic Relaxation 1
   ENCUT  =  400.0 eV  29.40 Ry    5.42 a.u.  14.15 14.15 22.70*2*pi/ulx,y,z
   ENINI  =  400.0     initial cutoff
   ENAUG  =  605.4 eV  augmentation charge cutoff
   NELM   =     60;   NELMIN=  2; NELMDL=-12     # of ELM steps
   EDIFF  = 0.1E-03   stopping-criterion for ELM
   LREAL  =      T    real-space projection
   NLSPLINE    = F    spline interpolate recip. space projectors
   LCOMPAT=      F    compatible to vasp.4.4
   GGA_COMPAT  = T    GGA compatible to vasp.4.4-vasp.4.6
   LMAXPAW     = -100 max onsite density
   LMAXMIX     =    2 max onsite mixed and CHGCAR
   VOSKOWN=      0    Vosko Wilk Nusair interpolation
   ROPT   =   -0.00025  -0.00025
 Ionic relaxation
   EDIFFG = 0.1E-02   stopping-criterion for IOM
   NSW    =      0    number of steps for IOM
   NBLOCK =      1;   KBLOCK =      1    inner block; outer block
   IBRION =     -1    ionic relax: 0-MD 1-quasi-New 2-CG
   NFREE  =      0    steps in history (QN), initial steepest desc. (CG)
   ISIF   =      2    stress and relaxation
   IWAVPR =     10    prediction:  0-non 1-charg 2-wave 3-comb
   ISYM   =      2    0-nonsym 1-usesym 2-fastsym
   LCORR  =      T    Harris-Foulkes like correction to forces

   POTIM  = 0.5000    time-step for ionic-motion
   TEIN   =    0.0    initial temperature
   TEBEG  =    0.0;   TEEND  =   0.0 temperature during run
   SMASS  =  -3.00    Nose mass-parameter (am)
   estimated Nose-frequenzy (Omega)   =  0.10E-29 period in steps =****** mass=  -0.172E-26a.u.
   SCALEE = 1.0000    scale energy and forces
   NPACO  =    256;   APACO  = 16.0  distance and # of slots for P.C.
   PSTRESS=    0.0 pullay stress

  Mass of Ions in am
   POMASS =  28.09 16.00
  Ionic Valenz
   ZVAL   =   4.00  6.00
  Atomic Wigner-Seitz radii
  virtual crystal weights
   VCA    =   1.00  1.00
   NELECT =     320.0000    total number of electrons
   NUPDOWN=      -1.0000    fix difference up-down

 DOS related values:
   EMIN   =  10.00;   EMAX   =-10.00  energy-range for DOS
   EFERMI =   0.00
   ISMEAR =     0;   SIGMA  =   0.01  broadening in eV -4-tet -1-fermi 0-gaus

 Electronic relaxation 2 (details)
   IALGO  =     48    algorithm
   LDIAG  =      T    sub-space diagonalisation (order eigenvalues)
   LSUBROT=      F    optimize rotation matrix (better conditioning)
   TURBO    =      0    0=normal 1=particle mesh
   IRESTART =      0    0=no restart 2=restart with 2 vectors
   NREBOOT  =      0    no. of reboots
   NMIN     =      0    reboot dimension
   EREF     =   0.00    reference energy to select bands
[...]
     42     -10.1951      2.00000
     43      -9.8981      2.00000
     44      -9.3708      2.00000
     45      -9.3708      2.00000
     46      -9.3557      2.00000
     47      -9.2399      2.00000
     48      -9.1886      2.00000
     49      -9.1886      2.00000
     50      -8.9454      2.00000
     51      -8.5012      2.00000
     52      -8.5012      2.00000
     53      -8.2640      2.00000
     54      -8.2640      2.00000
     55      -8.1702      2.00000
     56      -7.8254      2.00000
     57      -7.8054      2.00000
     58      -7.4336      2.00000
     59      -7.0911      2.00000
     60      -6.9410      2.00000
[...]
    178       7.6997      0.00000
    179       7.7006      0.00000
    180       7.8902      0.00000
    181       7.9348      0.00000
    182       7.9891      0.00000
    183       7.9976      0.00000
    184       8.1215      0.00000
    185       8.2027      0.00000
    186       8.2237      0.00000
    187       8.2386      0.00000
    188       8.2790      0.00000
    189       8.3369      0.00000
    190       8.5097      0.00000
    191       8.5817      0.00000
    192       8.7015      0.00000

 soft charge-density along one line, spin component           1
         0         1         2         3         4         5         6         7         8         9
 total charge-density along one line

------------------------ aborting loop because EDIFF is reached ----------------------------------------

  FORCE on cell =-STRESS in cart. coord.  units (eV):
  Direction    XX          YY          ZZ          XY          YZ          ZX
  Alpha Z   334.49511   334.49511   334.49511
  Ewald   -4112.50391 -4112.50391  2994.43693     0.00000    -0.00000    -0.00000
  Hartree  2486.28288  2486.28288  8582.38410    -0.00000    -0.00000    -0.00000
  E(xc)   -1497.12661 -1497.12661 -1497.02200    -0.00000    -0.00000     0.00000
  Local   -3039.26074 -3039.26074-16241.35885    -0.00000     0.00000     0.00000
  n-local  -362.45465  -362.45460  -349.33774    -0.00007    -0.00006    -0.00005
  augment   180.51453   180.51453   179.49237     0.00000     0.00000    -0.00000
  Kinetic  5989.54623  5989.54565  5978.40471     0.00004    -0.00006     0.00005
  Fock        0.00000     0.00000     0.00000     0.00000     0.00000     0.00000
  Total     -20.50743   -20.50743   -18.50539     0.00000    -0.00000    -0.00000
  in kB     -31.37436   -31.37436   -28.31143     0.00000    -0.00000    -0.00000

 VOLUME and BASIS-vectors are now :
  energy-cutoff  :      400.00
  volume of cell :     1047.24
      direct lattice vectors                 reciprocal lattice vectors
     8.674000000  0.000000000  0.000000000     0.115287065  0.000000000  0.000000000
    -0.000000000  8.674000000  0.000000000     0.000000000  0.115287065  0.000000000
     0.000000000  0.000000000 13.919000000    -0.000000000 -0.000000000  0.071844242

  length of vectors
     8.674000000  8.674000000 13.919000000     0.115287065  0.115287065  0.071844242

 FORCES acting on ions
    electron-ion (+dipol)            ewald-force                    non-local-force                 convergence-correction
   0.793E+02 0.522E+02 0.139E+02   -.787E+02 -.512E+02 -.144E+02   -.662E+00 -.112E+01 0.469E+00   -.989E-03 -.648E-03 0.147E-02
   -.522E+02 0.793E+02 0.139E+02   0.512E+02 -.787E+02 -.144E+02   0.112E+01 -.662E+00 0.469E+00   0.648E-03 -.989E-03 0.147E-02
   -.793E+02 -.522E+02 0.139E+02   0.787E+02 0.512E+02 -.144E+02   0.662E+00 0.112E+01 0.469E+00   0.989E-03 0.648E-03 0.147E-02
   0.522E+02 -.793E+02 0.139E+02   -.512E+02 0.787E+02 -.144E+02   -.112E+01 0.662E+00 0.469E+00   -.648E-03 0.989E-03 0.147E-02
   -.793E+02 0.522E+02 0.139E+02   0.787E+02 -.512E+02 -.144E+02   0.662E+00 -.112E+01 0.469E+00   0.989E-03 -.648E-03 0.147E-02
   0.522E+02 0.793E+02 0.139E+02   -.512E+02 -.787E+02 -.144E+02   -.112E+01 -.662E+00 0.469E+00   -.648E-03 -.989E-03 0.147E-02
   0.793E+02 -.522E+02 0.139E+02   -.787E+02 0.512E+02 -.144E+02   -.662E+00 0.112E+01 0.469E+00   -.989E-03 0.648E-03 0.147E-02
   -.522E+02 -.793E+02 0.139E+02   0.512E+02 0.787E+02 -.144E+02   0.112E+01 0.662E+00 0.469E+00   0.648E-03 0.989E-03 0.147E-02
   -.793E+02 -.522E+02 -.139E+02   0.787E+02 0.512E+02 0.144E+02   0.662E+00 0.112E+01 -.469E+00   0.989E-03 0.648E-03 -.147E-02
   0.522E+02 -.793E+02 -.139E+02   -.512E+02 0.787E+02 0.144E+02   -.112E+01 0.662E+00 -.469E+00   -.648E-03 0.989E-03 -.147E-02
   0.793E+02 0.522E+02 -.139E+02   -.787E+02 -.512E+02 0.144E+02   -.662E+00 -.112E+01 -.469E+00   -.989E-03 -.648E-03 -.147E-02
   -.522E+02 0.793E+02 -.139E+02   0.512E+02 -.787E+02 0.144E+02   0.112E+01 -.662E+00 -.469E+00   0.648E-03 -.989E-03 -.147E-02
   0.793E+02 -.522E+02 -.139E+02   -.787E+02 0.512E+02 0.144E+02   -.662E+00 0.112E+01 -.469E+00   -.989E-03 0.648E-03 -.147E-02
   -.522E+02 -.793E+02 -.139E+02   0.512E+02 0.787E+02 0.144E+02   0.112E+01 0.662E+00 -.469E+00   0.648E-03 0.989E-03 -.147E-02
   -.793E+02 0.522E+02 -.139E+02   0.787E+02 -.512E+02 0.144E+02   0.662E+00 -.112E+01 -.469E+00   0.989E-03 -.648E-03 -.147E-02
   0.522E+02 0.793E+02 -.139E+02   -.512E+02 -.787E+02 0.144E+02   -.112E+01 -.662E+00 -.469E+00   -.648E-03 -.989E-03 -.147E-02
   -.582E-12 0.142E-13 -.328E-14   0.213E-13 0.711E-14 0.142E-13   0.237E-21 0.494E-22 0.126E-21   -.717E-14 -.342E-13 -.743E-13
   0.313E-12 -.239E-13 0.702E-12   -.711E-14 -.142E-13 0.178E-13   -.212E-21 -.723E-23 -.169E-21   -.315E-13 0.246E-13 -.798E-13
   0.573E-12 0.200E-13 -.100E-12   0.320E-13 0.722E-14 0.187E-13   -.494E-22 0.384E-21 0.205E-21   0.119E-13 -.784E-14 0.406E-13
   -.219E-12 0.352E-14 -.351E-12   0.665E-13 0.109E-12 0.622E-14   0.291E-22 0.442E-22 -.241E-21   -.429E-13 0.442E-14 0.478E-13
   0.102E+03 -.236E+03 -.326E+02   -.109E+03 0.261E+03 0.315E+02   0.658E+01 -.257E+02 0.141E+01   0.553E-03 0.357E-02 -.470E-03
   0.236E+03 0.102E+03 -.326E+02   -.261E+03 -.109E+03 0.315E+02   0.257E+02 0.658E+01 0.141E+01   -.357E-02 0.553E-03 -.470E-03
   -.102E+03 0.236E+03 -.326E+02   0.109E+03 -.261E+03 0.315E+02   -.658E+01 0.257E+02 0.141E+01   -.553E-03 -.357E-02 -.470E-03
   -.236E+03 -.102E+03 -.326E+02   0.261E+03 0.109E+03 0.315E+02   -.257E+02 -.658E+01 0.141E+01   0.357E-02 -.553E-03 -.470E-03
   -.102E+03 -.236E+03 -.326E+02   0.109E+03 0.261E+03 0.315E+02   -.658E+01 -.257E+02 0.141E+01   -.553E-03 0.357E-02 -.470E-03
   -.236E+03 0.102E+03 -.326E+02   0.261E+03 -.109E+03 0.315E+02   -.257E+02 0.658E+01 0.141E+01   0.357E-02 0.553E-03 -.470E-03
   0.102E+03 0.236E+03 -.326E+02   -.109E+03 -.261E+03 0.315E+02   0.658E+01 0.257E+02 0.141E+01   0.553E-03 -.357E-02 -.470E-03
   0.236E+03 -.102E+03 -.326E+02   -.261E+03 0.109E+03 0.315E+02   0.257E+02 -.658E+01 0.141E+01   -.357E-02 -.553E-03 -.470E-03
   -.102E+03 0.236E+03 0.326E+02   0.109E+03 -.261E+03 -.315E+02   -.658E+01 0.257E+02 -.141E+01   -.553E-03 -.357E-02 0.470E-03
   -.236E+03 -.102E+03 0.326E+02   0.261E+03 0.109E+03 -.315E+02   -.257E+02 -.658E+01 -.141E+01   0.357E-02 -.553E-03 0.470E-03
   0.102E+03 -.236E+03 0.326E+02   -.109E+03 0.261E+03 -.315E+02   0.658E+01 -.257E+02 -.141E+01   0.553E-03 0.357E-02 0.470E-03
   0.236E+03 0.102E+03 0.326E+02   -.261E+03 -.109E+03 -.315E+02   0.257E+02 0.658E+01 -.141E+01   -.357E-02 0.553E-03 0.470E-03
   0.102E+03 0.236E+03 0.326E+02   -.109E+03 -.261E+03 -.315E+02   0.658E+01 0.257E+02 -.141E+01   0.553E-03 -.357E-02 0.470E-03
   0.236E+03 -.102E+03 0.326E+02   -.261E+03 0.109E+03 -.315E+02   0.257E+02 -.658E+01 -.141E+01   -.357E-02 -.553E-03 0.470E-03
   -.102E+03 -.236E+03 0.326E+02   0.109E+03 0.261E+03 -.315E+02   -.658E+01 -.257E+02 -.141E+01   -.553E-03 0.357E-02 0.470E-03
   -.236E+03 0.102E+03 0.326E+02   0.261E+03 -.109E+03 -.315E+02   -.257E+02 0.658E+01 -.141E+01   0.357E-02 0.553E-03 0.470E-03
   0.207E+03 0.113E+03 -.324E-05   -.227E+03 -.119E+03 -.941E-13   0.199E+02 0.527E+01 0.145E-14   -.260E-02 -.143E-02 0.201E-12
   -.113E+03 0.207E+03 -.244E-06   0.119E+03 -.227E+03 -.924E-13   -.527E+01 0.199E+02 0.842E-15   0.143E-02 -.260E-02 0.217E-12
   -.207E+03 -.113E+03 0.324E-05   0.227E+03 0.119E+03 0.586E-13   -.199E+02 -.527E+01 -.145E-14   0.260E-02 0.143E-02 0.128E-12
   0.113E+03 -.207E+03 0.244E-06   -.119E+03 0.227E+03 0.107E-13   0.527E+01 -.199E+02 -.842E-15   -.143E-02 0.260E-02 0.113E-12
   -.207E+03 0.113E+03 0.244E-06   0.227E+03 -.119E+03 0.817E-13   -.199E+02 0.527E+01 -.842E-15   0.260E-02 -.143E-02 -.918E-13
   0.113E+03 0.207E+03 -.324E-05   -.119E+03 -.227E+03 -.639E-13   0.527E+01 0.199E+02 0.145E-14   -.143E-02 -.260E-02 -.638E-13
   0.207E+03 -.113E+03 -.244E-06   -.227E+03 0.119E+03 -.639E-13   0.199E+02 -.527E+01 0.842E-15   -.260E-02 0.143E-02 -.130E-12
   -.113E+03 -.207E+03 0.324E-05   0.119E+03 0.227E+03 0.728E-13   -.527E+01 -.199E+02 -.145E-14   0.143E-02 0.260E-02 -.173E-12
   0.114E+03 0.144E+03 -.181E+02   -.120E+03 -.156E+03 0.300E+02   0.608E+01 0.114E+02 -.119E+02   -.232E-02 -.193E-02 0.340E-02
   -.144E+03 0.114E+03 -.181E+02   0.156E+03 -.120E+03 0.300E+02   -.114E+02 0.608E+01 -.119E+02   0.193E-02 -.232E-02 0.340E-02
   -.114E+03 -.144E+03 -.181E+02   0.120E+03 0.156E+03 0.300E+02   -.608E+01 -.114E+02 -.119E+02   0.232E-02 0.193E-02 0.340E-02
   0.144E+03 -.114E+03 -.181E+02   -.156E+03 0.120E+03 0.300E+02   0.114E+02 -.608E+01 -.119E+02   -.193E-02 0.232E-02 0.340E-02
   -.114E+03 0.144E+03 -.181E+02   0.120E+03 -.156E+03 0.300E+02   -.608E+01 0.114E+02 -.119E+02   0.232E-02 -.193E-02 0.340E-02
   0.144E+03 0.114E+03 -.181E+02   -.156E+03 -.120E+03 0.300E+02   0.114E+02 0.608E+01 -.119E+02   -.193E-02 -.232E-02 0.340E-02
   0.114E+03 -.144E+03 -.181E+02   -.120E+03 0.156E+03 0.300E+02   0.608E+01 -.114E+02 -.119E+02   -.232E-02 0.193E-02 0.340E-02
   -.144E+03 -.114E+03 -.181E+02   0.156E+03 0.120E+03 0.300E+02   -.114E+02 -.608E+01 -.119E+02   0.193E-02 0.232E-02 0.340E-02
   -.114E+03 -.144E+03 0.181E+02   0.120E+03 0.156E+03 -.300E+02   -.608E+01 -.114E+02 0.119E+02   0.232E-02 0.193E-02 -.340E-02
   0.144E+03 -.114E+03 0.181E+02   -.156E+03 0.120E+03 -.300E+02   0.114E+02 -.608E+01 0.119E+02   -.193E-02 0.232E-02 -.340E-02
   0.114E+03 0.144E+03 0.181E+02   -.120E+03 -.156E+03 -.300E+02   0.608E+01 0.114E+02 0.119E+02   -.232E-02 -.193E-02 -.340E-02
   -.144E+03 0.114E+03 0.181E+02   0.156E+03 -.120E+03 -.300E+02   -.114E+02 0.608E+01 0.119E+02   0.193E-02 -.232E-02 -.340E-02
   0.114E+03 -.144E+03 0.181E+02   -.120E+03 0.156E+03 -.300E+02   0.608E+01 -.114E+02 0.119E+02   -.232E-02 0.193E-02 -.340E-02
   -.144E+03 -.114E+03 0.181E+02   0.156E+03 0.120E+03 -.300E+02   -.114E+02 -.608E+01 0.119E+02   0.193E-02 0.232E-02 -.340E-02
   -.114E+03 0.144E+03 0.181E+02   0.120E+03 -.156E+03 -.300E+02   -.608E+01 0.114E+02 0.119E+02   0.232E-02 -.193E-02 -.340E-02
   0.144E+03 0.114E+03 0.181E+02   -.156E+03 -.120E+03 -.300E+02   0.114E+02 0.608E+01 0.119E+02   -.193E-02 -.232E-02 -.340E-02
   -.134E-10 0.428E-10 -.964E-10   -.284E-13 -.398E-12 0.298E-12   0.000E+00 0.266E-14 0.000E+00   -.443E-12 -.599E-12 0.162E-12

 POSITION                                       TOTAL-FORCE (eV/Angst)
      2.19799      3.73676      1.55058        -0.064882     -0.136827     -0.048188
      4.93724      2.19799      1.55058         0.136827     -0.064882     -0.048188
      6.47601      4.93724      1.55058         0.064882      0.136827     -0.048188
      3.73676      6.47601      1.55058        -0.136827      0.064882     -0.048188
      6.47601      3.73676      8.51008         0.064882     -0.136827     -0.048188
      3.73676      2.19799      8.51008        -0.136827     -0.064882     -0.048188
      2.19799      4.93724      8.51008        -0.064882      0.136827     -0.048188
      4.93724      6.47601      8.51008         0.136827      0.064882     -0.048188
      6.47601      4.93724     12.36842         0.064882      0.136827      0.048188
      3.73676      6.47601     12.36842        -0.136827      0.064882      0.048188
      2.19799      3.73676     12.36842        -0.064882     -0.136827      0.048188
      4.93724      2.19799     12.36842         0.136827     -0.064882      0.048188
      2.19799      4.93724      5.40892        -0.064882      0.136827      0.048188
      4.93724      6.47601      5.40892         0.136827      0.064882      0.048188
      6.47601      3.73676      5.40892         0.064882     -0.136827      0.048188
      3.73676      2.19799      5.40892        -0.136827     -0.064882      0.048188
     -0.00000      4.33700      3.47975         0.000000      0.000000     -0.000000
      4.33700      0.00000      3.47975         0.000000      0.000000     -0.000000
     -0.00000      4.33700     10.43925         0.000000      0.000000     -0.000000
      4.33700      0.00000     10.43925         0.000000      0.000000     -0.000000
      0.94460      5.26859      4.42346         0.176762      0.152156      0.244915
      3.40541      0.94460      4.42346        -0.152156      0.176762      0.244915
      7.72940      3.40541      4.42346        -0.176762     -0.152156      0.244915
      5.26859      7.72940      4.42346         0.152156     -0.176762      0.244915
      7.72940      5.26859     11.38296        -0.176762      0.152156      0.244915
      5.26859      0.94460     11.38296         0.152156      0.176762      0.244915
      0.94460      3.40541     11.38296         0.176762     -0.152156      0.244915
      3.40541      7.72940     11.38296        -0.152156     -0.176762      0.244915
      7.72940      3.40541      9.49554        -0.176762     -0.152156     -0.244915
      5.26859      7.72940      9.49554         0.152156     -0.176762     -0.244915
      0.94460      5.26859      9.49554         0.176762      0.152156     -0.244915
      3.40541      0.94460      9.49554        -0.152156      0.176762     -0.244915
      0.94460      3.40541      2.53604         0.176762     -0.152156     -0.244915
      3.40541      7.72940      2.53604        -0.152156     -0.176762     -0.244915
      7.72940      5.26859      2.53604        -0.176762      0.152156     -0.244915
      5.26859      0.94460      2.53604         0.152156      0.176762     -0.244915
      1.72179      3.60405      0.00000        -0.091462     -0.095180     -0.000000
      5.06995      1.72179      0.00000         0.095180     -0.091462     -0.000000
      6.95221      5.06995      0.00000         0.091462      0.095180      0.000000
      3.60405      6.95221      0.00000        -0.095180      0.091462     -0.000000
      6.95221      3.60405      6.95950         0.091462     -0.095180     -0.000000
      3.60405      1.72179      6.95950        -0.095180     -0.091462     -0.000000
      1.72179      5.06995      6.95950        -0.091462      0.095180     -0.000000
      5.06995      6.95221      6.95950         0.095180      0.091462      0.000000
      3.41582      2.69761      1.83870        -0.182882      0.040774      0.035871
      5.97639      3.41582      1.83870        -0.040774     -0.182882      0.035871
      5.25818      5.97639      1.83870         0.182882     -0.040774      0.035871
      2.69761      5.25818      1.83870         0.040774      0.182882      0.035871
      5.25818      2.69761      8.79820         0.182882      0.040774      0.035871
      2.69761      3.41582      8.79820         0.040774     -0.182882      0.035871
      3.41582      5.97639      8.79820        -0.182882     -0.040774      0.035871
      5.97639      5.25818      8.79820        -0.040774      0.182882      0.035871
      5.25818      5.97639     12.08030         0.182882     -0.040774     -0.035871
      2.69761      5.25818     12.08030         0.040774      0.182882     -0.035871
      3.41582      2.69761     12.08030        -0.182882      0.040774     -0.035871
      5.97639      3.41582     12.08030        -0.040774     -0.182882     -0.035871
      3.41582      5.97639      5.12080        -0.182882     -0.040774     -0.035871
      5.97639      5.25818      5.12080        -0.040774      0.182882     -0.035871
      5.25818      2.69761      5.12080         0.182882      0.040774     -0.035871
      2.69761      3.41582      5.12080         0.040774     -0.182882     -0.035871
    total drift:                               -0.000000      0.000000     -0.000000

  FREE ENERGIE OF THE ION-ELECTRON SYSTEM (eV)
  free  energy   TOTEN  =      -473.63882246 eV

  energy  without entropy=     -473.63882246  energy(sigma->0) =     -473.63882246

 stress matrix after NEB project (eV)
    -20.50743      0.00000     -0.00000
      0.00000    -20.50743     -0.00000
     -0.00000     -0.00000    -18.50539
  FORCES: max atom, RMS     0.338201    0.221955
  FORCE total and by dimension    1.719258    0.244915
  Stress total and by dimension   34.402886   20.507429
 writing wavefunctions